Please solve the following SAT Problem encoded in DIMACS format, only return a single solution assignment without explanations, if there is any: 
p cnf 5 12
1 -3 -4 0
1 5 3 0
-2 -3 5 0
-3 4 5 0
-2 3 1 0
-2 -3 1 0
5 4 -3 0
-3 4 1 0
-4 1 -2 0
-2 5 4 0
1 4 -3 0
5 -2 -3 0

